(declare-const term_to_project_onto0_integralized Int)
(declare-const term_to_project_onto_integralized Int)
(assert (exists
         ((|y'?1?1| Int) (|x'?2?2| Int) (phi_y?3?3 Int) (phi_x?4?4 Int)
            (phi_x?5?5 Int) (y?6?6 Int) (x?7?7 Int))
         (and (<= (+ (- y?6?6) 1) 0) (<= (- x?7?7) 0)
                (<= (+ x?7?7 -999999) 0)
                (or (and (<= (+ (- x?7?7) 500000) 0)
                           (or (and (<= (+ (- x?7?7) 750000) 0)
                                      (= (+ (- phi_x?5?5) x?7?7 2) 0))
                                 (and (<= (+ x?7?7 -749999) 0)
                                        (= (+ (- phi_x?5?5) x?7?7 1) 0)))
                           (= (+ (- phi_x?4?4) phi_x?5?5) 0)
                           (= (+ (- phi_y?3?3) y?6?6 1) 0))
                      (and (<= (+ x?7?7 -499999) 0)
                             (= (+ (- phi_x?4?4) x?7?7 1) 0)
                             (= (+ (- phi_y?3?3) y?6?6) 0)))
                (= (+ |y'?1?1| (- phi_y?3?3)) 0)
                (= (+ |x'?2?2| (- phi_x?4?4)) 0)
                (= (+ term_to_project_onto0_integralized
                        (- (+ |x'?2?2| (- x?7?7)))) 0)
                (= (+ term_to_project_onto_integralized
                        (- (+ |y'?1?1| (- y?6?6)))) 0))))